p cnf 84 244
c t mc
-1 2 -3 0
1 -2 -3 0
-1 -2 3 0
1 2 3 0
-5 -3 0
-5 4 0
3 -4 5 0
7 -8 -9 0
-7 8 -9 0
7 8 9 0
-7 -8 9 0
-10 6 0
-10 -9 0
-6 9 10 0
5 -10 -11 0
-5 10 -11 0
5 10 11 0
-5 -10 11 0
12 -3 0
12 3 0
-15 13 0
-15 -14 0
-13 14 15 0
16 -15 0
16 -1 0
15 1 -16 0
17 -18 -19 0
-17 18 -19 0
17 18 19 0
-17 -18 19 0
20 -16 0
20 -19 0
16 19 -20 0
-21 -12 0
-21 20 0
12 -20 21 0
-23 22 0
-23 -1 0
-22 1 23 0
-25 -23 0
-25 -24 0
23 24 25 0
-26 -21 0
-26 -25 0
21 25 26 0
27 -2 -28 0
-27 2 -28 0
27 2 28 0
-27 -2 28 0
29 26 0
29 -28 0
-26 28 -29 0
-30 -11 0
-30 -29 0
11 29 30 0
2 -17 -31 0
-2 17 -31 0
2 17 31 0
-2 -17 31 0
31 -27 -32 0
-31 27 -32 0
31 27 32 0
-31 -27 32 0
-33 32 0
-33 -14 0
-32 14 33 0
36 35 0
36 -24 0
-35 24 -36 0
-37 -34 0
-37 36 0
34 -36 37 0
-33 37 -38 0
33 -37 -38 0
-33 -37 38 0
33 37 38 0
-30 38 -39 0
30 -38 -39 0
-30 -38 39 0
30 38 39 0
-41 4 0
-41 40 0
-4 -40 41 0
-27 -34 -42 0
27 34 -42 0
-27 34 42 0
27 -34 42 0
44 -43 0
44 -18 0
43 18 -44 0
-45 42 0
-45 44 0
-42 -44 45 0
41 45 -46 0
-41 -45 -46 0
41 -45 46 0
-41 45 46 0
-47 15 0
-47 -42 0
-15 42 47 0
48 17 0
48 -47 0
-17 47 -48 0
-49 -46 0
-49 -48 0
46 48 49 0
50 -34 0
50 34 0
-51 49 0
-51 50 0
-49 -50 51 0
-52 -27 0
-52 2 0
27 -2 52 0
53 1 0
53 40 0
-1 -40 -53 0
-54 52 0
-54 53 0
-52 -53 54 0
-56 55 0
-56 -14 0
-55 14 56 0
-41 56 -57 0
41 -56 -57 0
-41 -56 57 0
41 56 57 0
-58 43 0
-58 42 0
-43 -42 58 0
35 45 -59 0
-35 -45 -59 0
35 -45 59 0
-35 45 59 0
-60 -58 0
-60 59 0
58 -59 60 0
-57 60 -61 0
57 -60 -61 0
-57 -60 61 0
57 60 61 0
62 -34 0
62 -55 0
34 55 -62 0
63 -61 0
63 62 0
61 -62 -63 0
-64 54 0
-64 -63 0
-54 63 64 0
65 51 0
65 -64 0
-51 64 -65 0
67 -19 0
67 66 0
19 -66 -67 0
68 -55 0
68 17 0
55 -17 -68 0
-69 -8 0
-69 14 0
8 -14 69 0
-68 -69 -70 0
68 69 -70 0
-68 69 70 0
68 -69 70 0
71 -67 0
71 70 0
67 -70 -71 0
-72 22 0
-72 -42 0
-22 42 72 0
-73 55 0
-73 -72 0
-55 72 73 0
74 43 0
74 -13 0
-43 13 -74 0
-75 -16 0
-75 23 0
16 -23 75 0
-74 75 -76 0
74 -75 -76 0
-74 -75 76 0
74 75 76 0
73 -76 -77 0
-73 76 -77 0
73 76 77 0
-73 -76 77 0
-79 16 0
-79 -78 0
-16 78 79 0
80 -24 0
80 -79 0
24 79 -80 0
-77 80 -81 0
77 -80 -81 0
-77 -80 81 0
77 80 81 0
82 -71 0
82 -81 0
71 81 -82 0
83 65 0
83 82 0
-65 -82 -83 0
-84 -39 0
-84 83 0
39 -83 84 0
-37 -48 32 56 -28 0
-33 48 -15 -36 0
30 81 -63 -52 0
48 34 69 -16 0
30 81 -12 10 -36 1 -41 -57 0
-28 -82 15 -7 -14 0
69 -83 77 -2 23 0
-44 -26 -30 56 61 -72 0
-14 -69 -28 -2 -22 0
-74 -57 -50 52 78 0
59 -9 0
-37 -83 -30 -68 67 -16 -74 -81 0
36 6 -28 -80 -56 -14 53 -61 0
-16 11 33 -55 0
19 -69 -79 -13 31 0
-83 80 6 2 0
2 -13 3 -62 67 45 32 27 0
-15 82 0
-51 20 -9 -83 65 0
-50 -73 -48 -31 43 -68 -82 0
67 6 -71 0
19 66 -70 47 -34 80 -13 16 -78 0
-33 -21 44 7 0
65 -19 82 -17 -1 71 63 -74 58 24 0
80 -82 -25 29 -5 0
44 39 -74 -53 -65 -42 0
25 0
54 -41 76 0
-38 -10 55 -19 -23 0
-77 -17 -72 31 -13 0
84 -78 -56 21 0
-58 -65 -67 -59 -31 -61 -75 0
22 55 68 62 0
11 -28 -12 -22 72 -36 0
33 8 45 62 7 39 0
84 0
